CMD:
./solvers/bin/cadical --plain --no-reduce -t 1600 ./data/cnfs//qspiflash_qflexpress_divfive-p104/qspiflash_qflexpress_divfive-p104.57.cnf

c --- [ banner ] -------------------------------------------------------------
c 
c CaDiCaL SAT Solver
c Copyright (c) 2016-2024
c A. Biere, M. Fleury, N. Froleyks, K. Fazekas, F. Pollitt, T. Faller
c JKU Linz, University of Freiburg, TU Wien
c 
c Version 2.1.3 5296d3d2a9bf48c154ab2acb5e44625776d821bf
c g++ (Gentoo 12.3.1_p20230526 p2) 12.3.1 20230526 -Wall -Wextra -O3 -DNDEBUG
c Sat Aug 9 07:26:21 PDT 2025 Linux cedar2.int.cedar.computecanada.ca 5.14.0-362.24.2.el9_3.x86_64 x86_64
c 
c --- [ limit ] --------------------------------------------------------------
c 
c setting time limit to 1600 seconds real time (due to '-t 1600')
c 
c --- [ parsing input ] ------------------------------------------------------
c 
c reading DIMACS file from './data/cnfs//qspiflash_qflexpress_divfive-p104/qspiflash_qflexpress_divfive-p104.57.cnf'
c opening file to read './data/cnfs//qspiflash_qflexpress_divfive-p104/qspiflash_qflexpress_divfive-p104.57.cnf'
c found 'p cnf 152621 444738' header
c parsed 444738 clauses in 0.07 seconds process time
c 
c --- [ options ] ------------------------------------------------------------
c 
c   --compact=false                (different from default 'true')
c   --decompose=false              (different from default 'true')
c   --deduplicate=false            (different from default 'true')
c   --elim=false                   (different from default 'true')
c   --probe=false                  (different from default 'true')
c   --reduce=false                 (different from default 'true')
c   --subsume=false                (different from default 'true')
c   --ternary=false                (different from default 'true')
c   --transred=false               (different from default 'true')
c   --vivify=false                 (different from default 'true')
c 
c --- [ solving ] ------------------------------------------------------------
c 
c time measured in process time since initialization
c 
c  seconds  reductions  redundant  irredundant
c         MB    restarts       trail       variables
c          level   conflicts       glue          remaining
c 
c *  0.07 73  0 0   0    0    0  0% 0 430086 143762 94%
c {  0.11 75  0 0   0    0    0  0% 0 430086 143762 94%
c i  0.14 76 92 0   0  207  157 13% 3 430086 143751 94%
c i  0.16 76 91 0   3  222  168 13% 4 430086 143495 94%
c i  0.17 76 74 0   7  336  269 14% 3 430086 143369 94%
c i  0.18 76 63 0   7  436  357 14% 3 430086 143368 94%
c }  0.25 76 51 0  37 1002  878 16% 3 430086 143368 94%
c [  0.25 76  0 0  37 1002  878  0% 0 430086 143368 94%
c O  0.28 76 876 0  37 1003  879 94% 1 430086 143368 94%
c i  0.29 76 859 0  37 1050  922 92% 2 430086 143364 94%
c i  0.29 76 850 0  37 1079  949 91% 2 430086 143360 94%
c i  0.30 76 839 0  37 1157 1024 89% 3 430086 143356 94%
c i  0.31 76 818 0  37 1346 1192 86% 3 430086 143355 94%
c i  0.32 76 813 0  37 1405 1246 85% 3 430086 143351 94%
c i  0.37 76 783 0  37 1806 1614 81% 4 430086 143350 94%
c i  0.37 76 781 0  37 1856 1652 81% 4 430086 143349 94%
c i  0.42 76 701 0  38 2153 1900 73% 4 430086 143348 94%
c i  0.47 76 555 0  38 2548 2232 61% 5 430086 143347 94%
c ]  0.52 76 459 0  38 3004 2623 54% 5 430086 143347 94%
c {  0.52 76 51 0  38 3004 2623 16% 3 430086 143347 94%
c 
c  seconds  reductions  redundant  irredundant
c         MB    restarts       trail       variables
c          level   conflicts       glue          remaining
c 
c F  0.52 76 51 0  39 3005 2623 16% 3 430086 143347 94%
c i  0.52 76 51 0  39 3005 2623 16% 3 430086 143343 94%
c i  0.53 76 52 0  53 3100 2710 16% 3 430086 143342 94%
c i  0.54 77 55 0  53 3138 2741 17% 3 430086 143341 94%
c i  0.58 77 63 0  69 3390 2964 18% 3 430086 142952 94%
c i  0.60 77 59 0 101 3513 3069 18% 3 430086 142949 94%
c i  0.77 77 50 0 256 4149 3644 16% 4 430086 142945 94%
c i  0.79 77 49 0 265 4236 3718 16% 4 430086 142826 94%
c i  0.80 77 48 0 271 4287 3758 16% 4 430086 142822 94%
c i  0.80 77 48 0 271 4289 3759 16% 4 430086 142811 94%
c i  0.86 77 46 0 343 4642 4068 16% 4 430086 142807 94%
c i  0.88 77 46 0 348 4691 4110 16% 4 430086 142803 94%
c i  0.88 77 45 0 353 4709 4126 16% 4 430086 142683 93%
c i  0.92 77 44 0 392 4931 4325 15% 4 430086 134925 88%
c i  0.93 77 44 0 392 4966 4354 15% 4 430086 134849 88%
c i  0.93 77 44 0 392 4976 4363 15% 4 430086 134845 88%
c i  0.93 77 44 0 392 4984 4370 15% 4 430086 134804 88%
c i  0.99 77 43 0 427 5277 4623 16% 4 430086 134800 88%
c i  0.99 77 43 0 428 5290 4635 16% 4 430086 134761 88%
c i  1.04 77 43 0 441 5544 4860 16% 4 430086 134754 88%
c 
c  seconds  reductions  redundant  irredundant
c         MB    restarts       trail       variables
c          level   conflicts       glue          remaining
c 
c i  1.04 77 42 0 448 5570 4882 16% 4 430086 134635 88%
c i  1.05 77 42 0 453 5587 4897 16% 4 430086 134631 88%
c i  1.07 77 41 0 471 5695 4991 16% 4 430086 134627 88%
c i  1.12 77 40 0 501 5964 5211 17% 4 430086 134623 88%
c i  1.12 77 40 0 501 5996 5236 16% 4 430086 134287 88%
c #  1.12 77 40 0 501 6006 5246 17% 4 430086 134287 88%
c i  1.13 77 40 0 501 6035 5269 17% 4 430086 133948 88%
c i  1.13 77 40 0 501 6036 5269 17% 4 430086 133944 88%
c i  1.13 77 40 0 501 6039 5271 17% 4 430086 133936 88%
c i  1.13 77 40 0 501 6045 5276 17% 4 430086 133879 88%
c i  1.13 77 39 0 501 6094 5320 17% 4 430086 133819 88%
c i  1.15 77 38 0 505 6234 5439 17% 4 430086 133798 88%
c i  1.15 77 38 0 505 6242 5446 17% 4 430086 133790 88%
c i  1.15 77 38 0 506 6248 5450 17% 4 430086 133743 88%
c i  1.15 77 38 0 506 6282 5473 17% 4 430086 133742 88%
c i  1.17 77 38 0 510 6383 5565 17% 4 430086 133700 88%
c i  1.22 77 37 0 525 6681 5814 17% 4 430086 133539 87%
c i  1.22 77 37 0 525 6682 5814 17% 4 430086 133080 87%
c i  1.22 77 37 0 525 6688 5819 17% 4 430086 132815 87%
c i  1.24 77 36 0 533 6758 5882 17% 4 430086 132643 87%
c 
c  seconds  reductions  redundant  irredundant
c         MB    restarts       trail       variables
c          level   conflicts       glue          remaining
c 
c i  1.26 77 36 0 548 6881 5994 17% 4 430086 132634 87%
c i  1.26 77 36 0 548 6882 5994 17% 4 430086 132630 87%
c i  1.27 77 36 0 553 6897 6007 17% 4 430086 132626 87%
c i  1.27 77 36 0 554 6937 6041 17% 4 430086 132584 87%
c }  1.28 77 35 0 556 7004 6102 17% 4 430086 132583 87%
c [  1.28 77 459 0 556 7004 6102 54% 5 430086 132583 87%
c i  1.29 77 457 0 556 7015 6112 54% 5 430086 132490 87%
c i  1.29 77 455 0 556 7025 6121 54% 5 430086 132489 87%
c i  1.30 77 447 0 556 7065 6148 53% 5 430086 123809 81%
c i  1.30 77 446 0 556 7067 6149 53% 5 430086 122920 81%
c i  1.30 77 446 0 556 7071 6151 53% 5 430086 122043 80%
c ]  1.30 77 445 0 556 7073 6151 53% 5 430086 121801 80%
c 0  1.30 77 445 0 556 7073 6151 53% 5 430086 121801 80%
c 
c --- [ result ] -------------------------------------------------------------
c 
s UNSATISFIABLE
c 
c --- [ run-time profiling ] -------------------------------------------------
c 
c process time taken by individual solving procedures
c (percentage relative to process time for solving)
c 
c         1.23   99.99% search
c         0.91   73.95% unstable
c         0.28   22.74% stable
c         0.07    5.56% parse
c         0.04    3.30% lucky
c         0.00    0.00% simplify
c   =================================
c         1.23   94.70% solve
c 
c last line shows process time for solving
c (percentage relative to total process time)
c 
c --- [ statistics ] ---------------------------------------------------------
c 
c chronological:              2918        41.26 %  of conflicts
c conflicts:                  7073      5752.65    per second
c decisions:                 26685     21703.59    per second
c fixed:                     30819        20.19 %  of all variables
c learned:                    6772        95.74 %  per conflict
c learned_lits:             101101       100.00 %  learned literals
c minimized:                     0         0.00 %  learned literals
c shrunken:                  16001        15.83 %  learned literals
c minishrunken:              12993        12.85 %  learned literals
c otfs:                         70         0.99 %  of conflict
c propagations:           15912921        12.94 M  per second
c rephased:                      3      2357.67    interval
c restarts:                    556        12.72    interval
c stabilizing:                   2        29.28 %  of conflicts
c subsumed:                    560         0.13 %  of all clauses
c strengthened:                 69         0.02 %  of all clauses
c 
c seconds are measured in process time for solving
c 
c --- [ resources ] ----------------------------------------------------------
c 
c total process time since initialization:         1.30    seconds
c total real time since initialization:            1.31    seconds
c maximum resident set size of process:           75.95    MB
c 
c --- [ shutting down ] ------------------------------------------------------
c 
c exit 20
